SDVRP instances/p01/p01_1030_tsplib0_split0.vrp
NAME:.\SDVRP_split
BEST_KNOWN: 0
COMMENT: 0
DIMENSION: 177
CAPACITY: 160
EDGE_WEIGHT_FORMAT: FUNCTION
EDGE_WEIGHT_TYPE: EXACT_2D
NODE_COORD_SECTION
1 0.00000 0.00000
2 7 12
3 7 12
4 7 12
5 7 12
6 19 9
7 19 9
8 19 9
9 19 9
10 22 24
11 22 24
12 22 24
13 22 24
14 22 24
15 -10 -14
16 -10 -14
17 10 -10
18 10 -10
19 10 -10
20 10 -10
21 10 -10
22 -9 7
23 -9 7
24 -9 7
25 -9 7
26 -13 23
27 -13 23
28 -13 23
29 -13 23
30 -13 23
31 -13 23
32 1 22
33 1 22
34 1 22
35 22 -7
36 22 -7
37 22 -7
38 22 -7
39 21 -19
40 21 -19
41 12 1
42 12 1
43 12 1
44 1 -8
45 1 -8
46 1 -8
47 1 -8
48 -25 -15
49 -25 -15
50 -25 -15
51 -25 -15
52 -25 -15
53 -18 2
54 6 -24
55 6 -24
56 6 -24
57 6 -24
58 22 1
59 22 1
60 22 1
61 -3 -17
62 -3 -17
63 -13 -7
64 -17 -27
65 -17 -27
66 -17 -27
67 -17 -27
68 27 18
69 27 18
70 32 2
71 32 2
72 32 2
73 12 17
74 12 17
75 12 17
76 -14 17
77 -14 17
78 -14 17
79 -22 12
80 -22 12
81 -23 -2
82 -23 -2
83 -23 -2
84 -3 28
85 -3 28
86 -3 28
87 -3 28
88 -3 28
89 0 8
90 0 8
91 13 27
92 13 27
93 28 8
94 28 8
95 28 8
96 28 -13
97 28 -13
98 28 -13
99 7 29
100 7 29
101 7 29
102 7 29
103 8 6
104 8 6
105 8 6
106 16 -30
107 16 -30
108 16 -30
109 31 -7
110 31 -7
111 31 -7
112 31 -7
113 32 23
114 32 23
115 32 23
116 32 23
117 33 29
118 33 29
119 33 29
120 33 29
121 33 29
122 33 29
123 2 -18
124 2 -18
125 15 -5
126 15 -5
127 15 -5
128 15 -5
129 15 -5
130 15 -5
131 29 -25
132 29 -25
133 29 -25
134 29 -25
135 29 -25
136 29 -25
137 -25 -34
138 -25 -34
139 -25 -34
140 -20 -23
141 -20 -23
142 -20 -23
143 -20 -23
144 -9 -30
145 -9 -30
146 -25 24
147 -25 24
148 -25 24
149 0 -25
150 0 -25
151 0 -25
152 0 -25
153 9 -30
154 9 -30
155 9 -30
156 9 -30
157 2 -1
158 2 -1
159 2 -1
160 -5 -8
161 -5 -8
162 -5 -8
163 -5 -8
164 -5 -8
165 -5 -8
166 -5 15
167 -5 15
168 -5 15
169 -5 15
170 -5 15
171 18 -12
172 18 -12
173 18 -12
174 18 -12
175 26 -3
176 26 -3
177 26 -3
DEMAND_SECTION
1 0
2 32
3 8
4 2
5 1
6 16
7 8
8 2
9 2
10 16
11 2
12 2
13 2
14 1
15 32
16 1
17 32
18 8
19 2
20 2
21 1
22 32
23 8
24 2
25 1
26 16
27 8
28 2
29 2
30 2
31 1
32 16
33 2
34 1
35 16
36 2
37 2
38 2
39 16
40 1
41 32
42 8
43 1
44 16
45 8
46 2
47 2
48 16
49 8
50 2
51 2
52 2
53 32
54 32
55 2
56 2
57 2
58 16
59 8
60 1
61 16
62 2
63 32
64 32
65 8
66 2
67 1
68 32
69 1
70 16
71 2
72 1
73 32
74 2
75 2
76 32
77 2
78 2
79 32
80 2
81 32
82 8
83 1
84 32
85 2
86 2
87 2
88 1
89 16
90 1
91 32
92 8
93 16
94 2
95 2
96 16
97 2
98 1
99 32
100 8
101 2
102 1
103 32
104 8
105 1
106 32
107 8
108 2
109 16
110 2
111 2
112 2
113 32
114 8
115 2
116 1
117 16
118 8
119 2
120 2
121 2
122 1
123 32
124 8
125 16
126 8
127 2
128 2
129 2
130 1
131 16
132 8
133 2
134 2
135 2
136 1
137 32
138 8
139 2
140 16
141 2
142 2
143 2
144 16
145 2
146 32
147 2
148 2
149 32
150 2
151 2
152 1
153 32
154 8
155 2
156 2
157 16
158 8
159 1
160 16
161 8
162 2
163 2
164 2
165 1
166 16
167 8
168 2
169 2
170 1
171 32
172 8
173 2
174 1
175 32
176 2
177 1
DEPOT_SECTION
1
-1
EOF