SDVRP instances/p01/p01_1030_tsplib0_split0.sol
176 -7 5 8 6 67 68 114 112 115 113 119 117 120 121 118 116 12 9 13 10 11 -14 15 139 142 141 140 137 136 138 63 64 65 66 144 143 -19 20 17 18 16 173 170 172 96 95 97 108 111 110 109 71 69 70 94 92 93 -22 23 21 24 -40 41 42 58 59 57 175 174 176 35 36 34 37 129 127 128 126 124 125 -44 45 56 54 153 154 155 152 107 105 106 133 134 131 130 132 135 39 38 171 -46 43 122 123 53 55 150 149 148 151 61 60 164 162 160 163 -52 80 82 81 51 47 50 48 49 62 161 159 -79 78 146 145 147 28 29 30 27 26 25 75 77 76 165 169 -89 88 2 3 4 1 74 73 72 102 103 104 -90 91 101 99 100 98 84 83 85 87 86 32 31 33 167 166 168 -157 156 158 0 





OBJ=
776.258
BEST_KNOWN=
0.000